NAME: rue_25_2
TYPE: TSP
DIMENSION: 25
EDGE_WEIGHT_TYPE: EUC_2D
NODE_COORD_SECTION
1 91 76
2 16 59
3 96 26
4 29 4
5 91 75
6 10 76
7 21 62
8 76 78
9 23 84
10 72 58
11 35 95
12 97 33
13 41 11
14 86 7
15 91 76
16 27 19
17 84 4
18 17 78
19 63 18
20 17 44
21 8 17
22 99 19
23 7 80
24 27 91
25 14 60
